
  21    0


   0  11 2 3 4 5 6 7 8 10 18 19 20 
   2   3 13 12 11 
   4   2 17 12 
   8   2 16 15 
   8   2 14 11 
   8   2 13 11 
   3   2 12 11 
   6   1 9 
   5   1 11 
   4   1 12 
   4   1 21
   4   1 21
   6   1 21
   5   1 21
   4   1 21
   1   1 21
   9   1 21
   3   1 21
   2   1 21
   8   1 21
   0   0 
